SECTION Graph
Nodes 92
Edges 91

E 22 30 1
E 22 722 1
E 24 30 1
E 24 424 1
E 25 30 1
E 25 35 1
E 25 325 1
E 27 30 1
E 27 47 1
E 27 527 1
E 30 40 1
E 30 50 1
E 30 70 1
E 30 80 1
E 30 100 1
E 32 35 1
E 32 532 1
E 34 35 1
E 34 334 1
E 35 37 1
E 35 45 1
E 35 75 1
E 35 95 1
E 37 437 1
E 40 740 1
E 42 47 1
E 42 442 1
E 44 47 1
E 44 744 1
E 45 545 1
E 47 77 1
E 47 97 1
E 50 350 1
E 61 70 1
E 61 161 1
E 72 92 1
E 72 372 1
E 74 80 1
E 75 475 1
E 77 777 1
E 80 580 1
E 92 94 1
E 92 100 1
E 94 594 1
E 95 795 1
E 97 397 1
E 100 500 1
E 101 106 1
E 101 161 1
E 101 201 1
E 103 106 1
E 103 803 1
E 106 108 1
E 106 109 1
E 106 116 1
E 106 156 1
E 106 186 1
E 108 908 1
E 109 609 1
E 111 161 1
E 111 611 1
E 113 119 1
E 113 213 1
E 116 916 1
E 118 119 1
E 118 818 1
E 119 159 1
E 119 169 1
E 119 189 1
E 151 161 1
E 151 851 1
E 153 158 1
E 153 653 1
E 156 256 1
E 158 168 1
E 158 188 1
E 159 959 1
E 161 163 1
E 161 166 1
E 161 168 1
E 161 169 1
E 161 181 1
E 163 183 1
E 163 963 1
E 166 866 1
E 168 668 1
E 169 269 1
E 181 981 1
E 186 686 1
E 188 288 1
E 189 889 1
END
SECTION Terminals
T 30
T 35
T 47
T 74
T 92
T 106
T 119
T 158
T 161
T 183
T 201
T 213
T 256
T 269
T 288
T 325
T 334
T 350
T 372
T 397
T 424
T 437
T 442
T 475
T 500
T 527
T 532
T 545
T 580
T 594
T 609
T 611
T 653
T 668
T 686
T 722
T 740
T 744
T 777
T 795
T 803
T 818
T 851
T 866
T 889
T 908
T 916
T 959
T 963
T 981
END
SECTION Cost
91
END
